; Benchmark for LTL-sketching problem
(set-logic QF_UF)
(set-info :status unknown)
(declare-fun z_0_0_0 () Bool)
(declare-fun z_0_1_0 () Bool)
(declare-fun z_0_2_0 () Bool)
(declare-fun z_0_3_0 () Bool)
(declare-fun z_0_4_0 () Bool)
(declare-fun z_0_5_0 () Bool)
(declare-fun z_0_6_0 () Bool)
(declare-fun z_0_7_0 () Bool)
(declare-fun z_0_8_0 () Bool)
(declare-fun z_0_9_0 () Bool)
(declare-fun z_0_10_0 () Bool)
(declare-fun z_0_11_0 () Bool)
(declare-fun z_0_12_0 () Bool)
(declare-fun z_0_13_0 () Bool)
(declare-fun z_0_14_0 () Bool)
(declare-fun z_0_15_0 () Bool)
(declare-fun z_0_16_0 () Bool)
(declare-fun z_0_17_0 () Bool)
(declare-fun z_0_18_0 () Bool)
(declare-fun z_0_19_0 () Bool)
(declare-fun z_1_0_2 () Bool)
(declare-fun z_1_0_1 () Bool)
(declare-fun z_1_0_0 () Bool)
(declare-fun z_0_0_1 () Bool)
(declare-fun z_0_0_2 () Bool)
(declare-fun z_1_1_5 () Bool)
(declare-fun z_1_1_4 () Bool)
(declare-fun z_1_1_3 () Bool)
(declare-fun z_1_1_2 () Bool)
(declare-fun z_1_1_1 () Bool)
(declare-fun z_1_1_0 () Bool)
(declare-fun z_0_1_1 () Bool)
(declare-fun z_0_1_2 () Bool)
(declare-fun z_0_1_3 () Bool)
(declare-fun z_0_1_4 () Bool)
(declare-fun z_0_1_5 () Bool)
(declare-fun z_1_2_3 () Bool)
(declare-fun z_1_2_2 () Bool)
(declare-fun z_1_2_1 () Bool)
(declare-fun z_1_2_0 () Bool)
(declare-fun z_0_2_1 () Bool)
(declare-fun z_0_2_2 () Bool)
(declare-fun z_0_2_3 () Bool)
(declare-fun z_1_3_2 () Bool)
(declare-fun z_1_3_1 () Bool)
(declare-fun z_1_3_0 () Bool)
(declare-fun z_0_3_1 () Bool)
(declare-fun z_0_3_2 () Bool)
(declare-fun z_1_4_5 () Bool)
(declare-fun z_1_4_4 () Bool)
(declare-fun z_1_4_3 () Bool)
(declare-fun z_1_4_2 () Bool)
(declare-fun z_1_4_1 () Bool)
(declare-fun z_1_4_0 () Bool)
(declare-fun z_0_4_1 () Bool)
(declare-fun z_0_4_2 () Bool)
(declare-fun z_0_4_3 () Bool)
(declare-fun z_0_4_4 () Bool)
(declare-fun z_0_4_5 () Bool)
(declare-fun z_1_5_3 () Bool)
(declare-fun z_1_5_2 () Bool)
(declare-fun z_1_5_1 () Bool)
(declare-fun z_1_5_0 () Bool)
(declare-fun z_0_5_1 () Bool)
(declare-fun z_0_5_2 () Bool)
(declare-fun z_0_5_3 () Bool)
(declare-fun z_1_6_2 () Bool)
(declare-fun z_1_6_1 () Bool)
(declare-fun z_1_6_0 () Bool)
(declare-fun z_0_6_1 () Bool)
(declare-fun z_0_6_2 () Bool)
(declare-fun z_1_7_6 () Bool)
(declare-fun z_1_7_5 () Bool)
(declare-fun z_1_7_4 () Bool)
(declare-fun z_1_7_3 () Bool)
(declare-fun z_1_7_2 () Bool)
(declare-fun z_1_7_1 () Bool)
(declare-fun z_1_7_0 () Bool)
(declare-fun z_0_7_1 () Bool)
(declare-fun z_0_7_2 () Bool)
(declare-fun z_0_7_3 () Bool)
(declare-fun z_0_7_4 () Bool)
(declare-fun z_0_7_5 () Bool)
(declare-fun z_0_7_6 () Bool)
(declare-fun z_1_8_2 () Bool)
(declare-fun z_1_8_1 () Bool)
(declare-fun z_1_8_0 () Bool)
(declare-fun z_0_8_1 () Bool)
(declare-fun z_0_8_2 () Bool)
(declare-fun z_1_9_2 () Bool)
(declare-fun z_1_9_1 () Bool)
(declare-fun z_1_9_0 () Bool)
(declare-fun z_0_9_1 () Bool)
(declare-fun z_0_9_2 () Bool)
(declare-fun z_1_10_5 () Bool)
(declare-fun z_1_10_4 () Bool)
(declare-fun z_1_10_3 () Bool)
(declare-fun z_1_10_2 () Bool)
(declare-fun z_1_10_1 () Bool)
(declare-fun z_1_10_0 () Bool)
(declare-fun z_0_10_1 () Bool)
(declare-fun z_0_10_2 () Bool)
(declare-fun z_0_10_3 () Bool)
(declare-fun z_0_10_4 () Bool)
(declare-fun z_0_10_5 () Bool)
(declare-fun z_1_11_5 () Bool)
(declare-fun z_1_11_4 () Bool)
(declare-fun z_1_11_3 () Bool)
(declare-fun z_1_11_2 () Bool)
(declare-fun z_1_11_1 () Bool)
(declare-fun z_1_11_0 () Bool)
(declare-fun z_0_11_1 () Bool)
(declare-fun z_0_11_2 () Bool)
(declare-fun z_0_11_3 () Bool)
(declare-fun z_0_11_4 () Bool)
(declare-fun z_0_11_5 () Bool)
(declare-fun z_1_12_5 () Bool)
(declare-fun z_1_12_4 () Bool)
(declare-fun z_1_12_3 () Bool)
(declare-fun z_1_12_2 () Bool)
(declare-fun z_1_12_1 () Bool)
(declare-fun z_1_12_0 () Bool)
(declare-fun z_0_12_1 () Bool)
(declare-fun z_0_12_2 () Bool)
(declare-fun z_0_12_3 () Bool)
(declare-fun z_0_12_4 () Bool)
(declare-fun z_0_12_5 () Bool)
(declare-fun z_1_13_7 () Bool)
(declare-fun z_1_13_6 () Bool)
(declare-fun z_1_13_5 () Bool)
(declare-fun z_1_13_4 () Bool)
(declare-fun z_1_13_3 () Bool)
(declare-fun z_1_13_2 () Bool)
(declare-fun z_1_13_1 () Bool)
(declare-fun z_1_13_0 () Bool)
(declare-fun z_0_13_1 () Bool)
(declare-fun z_0_13_2 () Bool)
(declare-fun z_0_13_3 () Bool)
(declare-fun z_0_13_4 () Bool)
(declare-fun z_0_13_5 () Bool)
(declare-fun z_0_13_6 () Bool)
(declare-fun z_0_13_7 () Bool)
(declare-fun z_1_14_3 () Bool)
(declare-fun z_1_14_2 () Bool)
(declare-fun z_1_14_1 () Bool)
(declare-fun z_1_14_0 () Bool)
(declare-fun z_0_14_1 () Bool)
(declare-fun z_0_14_2 () Bool)
(declare-fun z_0_14_3 () Bool)
(declare-fun z_1_15_4 () Bool)
(declare-fun z_1_15_3 () Bool)
(declare-fun z_1_15_2 () Bool)
(declare-fun z_1_15_1 () Bool)
(declare-fun z_1_15_0 () Bool)
(declare-fun z_0_15_1 () Bool)
(declare-fun z_0_15_2 () Bool)
(declare-fun z_0_15_3 () Bool)
(declare-fun z_0_15_4 () Bool)
(declare-fun z_1_16_4 () Bool)
(declare-fun z_1_16_3 () Bool)
(declare-fun z_1_16_2 () Bool)
(declare-fun z_1_16_1 () Bool)
(declare-fun z_1_16_0 () Bool)
(declare-fun z_0_16_1 () Bool)
(declare-fun z_0_16_2 () Bool)
(declare-fun z_0_16_3 () Bool)
(declare-fun z_0_16_4 () Bool)
(declare-fun z_1_17_4 () Bool)
(declare-fun z_1_17_3 () Bool)
(declare-fun z_1_17_2 () Bool)
(declare-fun z_1_17_1 () Bool)
(declare-fun z_1_17_0 () Bool)
(declare-fun z_0_17_1 () Bool)
(declare-fun z_0_17_2 () Bool)
(declare-fun z_0_17_3 () Bool)
(declare-fun z_0_17_4 () Bool)
(declare-fun z_1_18_3 () Bool)
(declare-fun z_1_18_2 () Bool)
(declare-fun z_1_18_1 () Bool)
(declare-fun z_1_18_0 () Bool)
(declare-fun z_0_18_1 () Bool)
(declare-fun z_0_18_2 () Bool)
(declare-fun z_0_18_3 () Bool)
(declare-fun z_1_19_4 () Bool)
(declare-fun z_1_19_3 () Bool)
(declare-fun z_1_19_2 () Bool)
(declare-fun z_1_19_1 () Bool)
(declare-fun z_1_19_0 () Bool)
(declare-fun z_0_19_1 () Bool)
(declare-fun z_0_19_2 () Bool)
(declare-fun z_0_19_3 () Bool)
(declare-fun z_0_19_4 () Bool)
(declare-fun z_4_0_0 () Bool)
(declare-fun z_2_0_0 () Bool)
(declare-fun z_4_0_1 () Bool)
(declare-fun z_2_0_1 () Bool)
(declare-fun z_4_0_2 () Bool)
(declare-fun z_2_0_2 () Bool)
(declare-fun z_4_1_0 () Bool)
(declare-fun z_2_1_0 () Bool)
(declare-fun z_4_1_1 () Bool)
(declare-fun z_2_1_1 () Bool)
(declare-fun z_4_1_2 () Bool)
(declare-fun z_2_1_2 () Bool)
(declare-fun z_4_1_3 () Bool)
(declare-fun z_2_1_3 () Bool)
(declare-fun z_4_1_4 () Bool)
(declare-fun z_2_1_4 () Bool)
(declare-fun z_4_1_5 () Bool)
(declare-fun z_2_1_5 () Bool)
(declare-fun z_4_2_0 () Bool)
(declare-fun z_2_2_0 () Bool)
(declare-fun z_4_2_1 () Bool)
(declare-fun z_2_2_1 () Bool)
(declare-fun z_4_2_2 () Bool)
(declare-fun z_2_2_2 () Bool)
(declare-fun z_4_2_3 () Bool)
(declare-fun z_2_2_3 () Bool)
(declare-fun z_4_3_0 () Bool)
(declare-fun z_2_3_0 () Bool)
(declare-fun z_4_3_1 () Bool)
(declare-fun z_2_3_1 () Bool)
(declare-fun z_4_3_2 () Bool)
(declare-fun z_2_3_2 () Bool)
(declare-fun z_4_4_0 () Bool)
(declare-fun z_2_4_0 () Bool)
(declare-fun z_4_4_1 () Bool)
(declare-fun z_2_4_1 () Bool)
(declare-fun z_4_4_2 () Bool)
(declare-fun z_2_4_2 () Bool)
(declare-fun z_4_4_3 () Bool)
(declare-fun z_2_4_3 () Bool)
(declare-fun z_4_4_4 () Bool)
(declare-fun z_2_4_4 () Bool)
(declare-fun z_4_4_5 () Bool)
(declare-fun z_2_4_5 () Bool)
(declare-fun z_4_5_0 () Bool)
(declare-fun z_2_5_0 () Bool)
(declare-fun z_4_5_1 () Bool)
(declare-fun z_2_5_1 () Bool)
(declare-fun z_4_5_2 () Bool)
(declare-fun z_2_5_2 () Bool)
(declare-fun z_4_5_3 () Bool)
(declare-fun z_2_5_3 () Bool)
(declare-fun z_4_6_0 () Bool)
(declare-fun z_2_6_0 () Bool)
(declare-fun z_4_6_1 () Bool)
(declare-fun z_2_6_1 () Bool)
(declare-fun z_4_6_2 () Bool)
(declare-fun z_2_6_2 () Bool)
(declare-fun z_4_7_0 () Bool)
(declare-fun z_2_7_0 () Bool)
(declare-fun z_4_7_1 () Bool)
(declare-fun z_2_7_1 () Bool)
(declare-fun z_4_7_2 () Bool)
(declare-fun z_2_7_2 () Bool)
(declare-fun z_4_7_3 () Bool)
(declare-fun z_2_7_3 () Bool)
(declare-fun z_4_7_4 () Bool)
(declare-fun z_2_7_4 () Bool)
(declare-fun z_4_7_5 () Bool)
(declare-fun z_2_7_5 () Bool)
(declare-fun z_4_7_6 () Bool)
(declare-fun z_2_7_6 () Bool)
(declare-fun z_4_8_0 () Bool)
(declare-fun z_2_8_0 () Bool)
(declare-fun z_4_8_1 () Bool)
(declare-fun z_2_8_1 () Bool)
(declare-fun z_4_8_2 () Bool)
(declare-fun z_2_8_2 () Bool)
(declare-fun z_4_9_0 () Bool)
(declare-fun z_2_9_0 () Bool)
(declare-fun z_4_9_1 () Bool)
(declare-fun z_2_9_1 () Bool)
(declare-fun z_4_9_2 () Bool)
(declare-fun z_2_9_2 () Bool)
(declare-fun z_4_10_0 () Bool)
(declare-fun z_2_10_0 () Bool)
(declare-fun z_4_10_1 () Bool)
(declare-fun z_2_10_1 () Bool)
(declare-fun z_4_10_2 () Bool)
(declare-fun z_2_10_2 () Bool)
(declare-fun z_4_10_3 () Bool)
(declare-fun z_2_10_3 () Bool)
(declare-fun z_4_10_4 () Bool)
(declare-fun z_2_10_4 () Bool)
(declare-fun z_4_10_5 () Bool)
(declare-fun z_2_10_5 () Bool)
(declare-fun z_4_11_0 () Bool)
(declare-fun z_2_11_0 () Bool)
(declare-fun z_4_11_1 () Bool)
(declare-fun z_2_11_1 () Bool)
(declare-fun z_4_11_2 () Bool)
(declare-fun z_2_11_2 () Bool)
(declare-fun z_4_11_3 () Bool)
(declare-fun z_2_11_3 () Bool)
(declare-fun z_4_11_4 () Bool)
(declare-fun z_2_11_4 () Bool)
(declare-fun z_4_11_5 () Bool)
(declare-fun z_2_11_5 () Bool)
(declare-fun z_4_12_0 () Bool)
(declare-fun z_2_12_0 () Bool)
(declare-fun z_4_12_1 () Bool)
(declare-fun z_2_12_1 () Bool)
(declare-fun z_4_12_2 () Bool)
(declare-fun z_2_12_2 () Bool)
(declare-fun z_4_12_3 () Bool)
(declare-fun z_2_12_3 () Bool)
(declare-fun z_4_12_4 () Bool)
(declare-fun z_2_12_4 () Bool)
(declare-fun z_4_12_5 () Bool)
(declare-fun z_2_12_5 () Bool)
(declare-fun z_4_13_0 () Bool)
(declare-fun z_2_13_0 () Bool)
(declare-fun z_4_13_1 () Bool)
(declare-fun z_2_13_1 () Bool)
(declare-fun z_4_13_2 () Bool)
(declare-fun z_2_13_2 () Bool)
(declare-fun z_4_13_3 () Bool)
(declare-fun z_2_13_3 () Bool)
(declare-fun z_4_13_4 () Bool)
(declare-fun z_2_13_4 () Bool)
(declare-fun z_4_13_5 () Bool)
(declare-fun z_2_13_5 () Bool)
(declare-fun z_4_13_6 () Bool)
(declare-fun z_2_13_6 () Bool)
(declare-fun z_4_13_7 () Bool)
(declare-fun z_2_13_7 () Bool)
(declare-fun z_4_14_0 () Bool)
(declare-fun z_2_14_0 () Bool)
(declare-fun z_4_14_1 () Bool)
(declare-fun z_2_14_1 () Bool)
(declare-fun z_4_14_2 () Bool)
(declare-fun z_2_14_2 () Bool)
(declare-fun z_4_14_3 () Bool)
(declare-fun z_2_14_3 () Bool)
(declare-fun z_4_15_0 () Bool)
(declare-fun z_2_15_0 () Bool)
(declare-fun z_4_15_1 () Bool)
(declare-fun z_2_15_1 () Bool)
(declare-fun z_4_15_2 () Bool)
(declare-fun z_2_15_2 () Bool)
(declare-fun z_4_15_3 () Bool)
(declare-fun z_2_15_3 () Bool)
(declare-fun z_4_15_4 () Bool)
(declare-fun z_2_15_4 () Bool)
(declare-fun z_4_16_0 () Bool)
(declare-fun z_2_16_0 () Bool)
(declare-fun z_4_16_1 () Bool)
(declare-fun z_2_16_1 () Bool)
(declare-fun z_4_16_2 () Bool)
(declare-fun z_2_16_2 () Bool)
(declare-fun z_4_16_3 () Bool)
(declare-fun z_2_16_3 () Bool)
(declare-fun z_4_16_4 () Bool)
(declare-fun z_2_16_4 () Bool)
(declare-fun z_4_17_0 () Bool)
(declare-fun z_2_17_0 () Bool)
(declare-fun z_4_17_1 () Bool)
(declare-fun z_2_17_1 () Bool)
(declare-fun z_4_17_2 () Bool)
(declare-fun z_2_17_2 () Bool)
(declare-fun z_4_17_3 () Bool)
(declare-fun z_2_17_3 () Bool)
(declare-fun z_4_17_4 () Bool)
(declare-fun z_2_17_4 () Bool)
(declare-fun z_4_18_0 () Bool)
(declare-fun z_2_18_0 () Bool)
(declare-fun z_4_18_1 () Bool)
(declare-fun z_2_18_1 () Bool)
(declare-fun z_4_18_2 () Bool)
(declare-fun z_2_18_2 () Bool)
(declare-fun z_4_18_3 () Bool)
(declare-fun z_2_18_3 () Bool)
(declare-fun z_4_19_0 () Bool)
(declare-fun z_2_19_0 () Bool)
(declare-fun z_4_19_1 () Bool)
(declare-fun z_2_19_1 () Bool)
(declare-fun z_4_19_2 () Bool)
(declare-fun z_2_19_2 () Bool)
(declare-fun z_4_19_3 () Bool)
(declare-fun z_2_19_3 () Bool)
(declare-fun z_4_19_4 () Bool)
(declare-fun z_2_19_4 () Bool)
(declare-fun x_4_q () Bool)
(declare-fun x_4_p () Bool)
(declare-fun x_4_-> () Bool)
(declare-fun x_4_U () Bool)
(declare-fun x_4_v () Bool)
(declare-fun x_4_& () Bool)
(declare-fun x_4_X () Bool)
(declare-fun x_4_! () Bool)
(declare-fun x_4_F () Bool)
(declare-fun x_4_G () Bool)
(assert
 (= z_0_0_0 true))
(assert
 (= z_0_1_0 true))
(assert
 (= z_0_2_0 true))
(assert
 (= z_0_3_0 true))
(assert
 (= z_0_4_0 true))
(assert
 (= z_0_5_0 true))
(assert
 (= z_0_6_0 true))
(assert
 (= z_0_7_0 true))
(assert
 (= z_0_8_0 true))
(assert
 (= z_0_9_0 true))
(assert
 (= z_0_10_0 false))
(assert
 (= z_0_11_0 false))
(assert
 (= z_0_12_0 false))
(assert
 (= z_0_13_0 false))
(assert
 (= z_0_14_0 false))
(assert
 (= z_0_15_0 false))
(assert
 (= z_0_16_0 false))
(assert
 (= z_0_17_0 false))
(assert
 (= z_0_18_0 false))
(assert
 (= z_0_19_0 false))
(assert
 (= z_0_0_0 (and z_1_0_0 z_1_0_1 z_1_0_2)))
(assert
 (= z_0_0_1 (and z_1_0_1 z_1_0_2)))
(assert
 (= z_0_0_2 (and z_1_0_2)))
(assert
 (= z_0_1_0 (and z_1_1_0 z_1_1_1 z_1_1_2 z_1_1_3 z_1_1_4 z_1_1_5)))
(assert
 (= z_0_1_1 (and z_1_1_1 z_1_1_2 z_1_1_3 z_1_1_4 z_1_1_5)))
(assert
 (= z_0_1_2 (and z_1_1_2 z_1_1_3 z_1_1_4 z_1_1_5)))
(assert
 (= z_0_1_3 (and z_1_1_3 z_1_1_4 z_1_1_5)))
(assert
 (let (($x55 (and z_1_1_4 z_1_1_5)))
 (= z_0_1_4 $x55)))
(assert
 (let (($x55 (and z_1_1_4 z_1_1_5)))
 (= z_0_1_5 $x55)))
(assert
 (= z_0_2_0 (and z_1_2_0 z_1_2_1 z_1_2_2 z_1_2_3)))
(assert
 (= z_0_2_1 (and z_1_2_1 z_1_2_2 z_1_2_3)))
(assert
 (let (($x70 (and z_1_2_2 z_1_2_3)))
 (= z_0_2_2 $x70)))
(assert
 (let (($x70 (and z_1_2_2 z_1_2_3)))
 (= z_0_2_3 $x70)))
(assert
 (= z_0_3_0 (and z_1_3_0 z_1_3_1 z_1_3_2)))
(assert
 (let (($x81 (and z_1_3_1 z_1_3_2)))
 (= z_0_3_1 $x81)))
(assert
 (let (($x81 (and z_1_3_1 z_1_3_2)))
 (= z_0_3_2 $x81)))
(assert
 (= z_0_4_0 (and z_1_4_0 z_1_4_1 z_1_4_2 z_1_4_3 z_1_4_4 z_1_4_5)))
(assert
 (= z_0_4_1 (and z_1_4_1 z_1_4_2 z_1_4_3 z_1_4_4 z_1_4_5)))
(assert
 (let (($x98 (and z_1_4_2 z_1_4_3 z_1_4_4 z_1_4_5)))
 (= z_0_4_2 $x98)))
(assert
 (let (($x98 (and z_1_4_2 z_1_4_3 z_1_4_4 z_1_4_5)))
 (= z_0_4_3 $x98)))
(assert
 (let (($x98 (and z_1_4_2 z_1_4_3 z_1_4_4 z_1_4_5)))
 (= z_0_4_4 $x98)))
(assert
 (let (($x98 (and z_1_4_2 z_1_4_3 z_1_4_4 z_1_4_5)))
 (= z_0_4_5 $x98)))
(assert
 (= z_0_5_0 (and z_1_5_0 z_1_5_1 z_1_5_2 z_1_5_3)))
(assert
 (= z_0_5_1 (and z_1_5_1 z_1_5_2 z_1_5_3)))
(assert
 (let (($x117 (and z_1_5_2 z_1_5_3)))
 (= z_0_5_2 $x117)))
(assert
 (let (($x117 (and z_1_5_2 z_1_5_3)))
 (= z_0_5_3 $x117)))
(assert
 (= z_0_6_0 (and z_1_6_0 z_1_6_1 z_1_6_2)))
(assert
 (= z_0_6_1 (and z_1_6_1 z_1_6_2)))
(assert
 (= z_0_6_2 (and z_1_6_2)))
(assert
 (let (($x142 (and z_1_7_0 z_1_7_1 z_1_7_2 z_1_7_3 z_1_7_4 z_1_7_5 z_1_7_6)))
 (= z_0_7_0 $x142)))
(assert
 (= z_0_7_1 (and z_1_7_1 z_1_7_2 z_1_7_3 z_1_7_4 z_1_7_5 z_1_7_6)))
(assert
 (= z_0_7_2 (and z_1_7_2 z_1_7_3 z_1_7_4 z_1_7_5 z_1_7_6)))
(assert
 (let (($x151 (and z_1_7_3 z_1_7_4 z_1_7_5 z_1_7_6)))
 (= z_0_7_3 $x151)))
(assert
 (let (($x151 (and z_1_7_3 z_1_7_4 z_1_7_5 z_1_7_6)))
 (= z_0_7_4 $x151)))
(assert
 (let (($x151 (and z_1_7_3 z_1_7_4 z_1_7_5 z_1_7_6)))
 (= z_0_7_5 $x151)))
(assert
 (let (($x151 (and z_1_7_3 z_1_7_4 z_1_7_5 z_1_7_6)))
 (= z_0_7_6 $x151)))
(assert
 (= z_0_8_0 (and z_1_8_0 z_1_8_1 z_1_8_2)))
(assert
 (let (($x166 (and z_1_8_1 z_1_8_2)))
 (= z_0_8_1 $x166)))
(assert
 (let (($x166 (and z_1_8_1 z_1_8_2)))
 (= z_0_8_2 $x166)))
(assert
 (= z_0_9_0 (and z_1_9_0 z_1_9_1 z_1_9_2)))
(assert
 (= z_0_9_1 (and z_1_9_1 z_1_9_2)))
(assert
 (= z_0_9_2 (and z_1_9_2)))
(assert
 (= z_0_10_0 (and z_1_10_0 z_1_10_1 z_1_10_2 z_1_10_3 z_1_10_4 z_1_10_5)))
(assert
 (= z_0_10_1 (and z_1_10_1 z_1_10_2 z_1_10_3 z_1_10_4 z_1_10_5)))
(assert
 (let (($x196 (and z_1_10_2 z_1_10_3 z_1_10_4 z_1_10_5)))
 (= z_0_10_2 $x196)))
(assert
 (let (($x196 (and z_1_10_2 z_1_10_3 z_1_10_4 z_1_10_5)))
 (= z_0_10_3 $x196)))
(assert
 (let (($x196 (and z_1_10_2 z_1_10_3 z_1_10_4 z_1_10_5)))
 (= z_0_10_4 $x196)))
(assert
 (let (($x196 (and z_1_10_2 z_1_10_3 z_1_10_4 z_1_10_5)))
 (= z_0_10_5 $x196)))
(assert
 (= z_0_11_0 (and z_1_11_0 z_1_11_1 z_1_11_2 z_1_11_3 z_1_11_4 z_1_11_5)))
(assert
 (= z_0_11_1 (and z_1_11_1 z_1_11_2 z_1_11_3 z_1_11_4 z_1_11_5)))
(assert
 (= z_0_11_2 (and z_1_11_2 z_1_11_3 z_1_11_4 z_1_11_5)))
(assert
 (= z_0_11_3 (and z_1_11_3 z_1_11_4 z_1_11_5)))
(assert
 (let (($x223 (and z_1_11_4 z_1_11_5)))
 (= z_0_11_4 $x223)))
(assert
 (let (($x223 (and z_1_11_4 z_1_11_5)))
 (= z_0_11_5 $x223)))
(assert
 (= z_0_12_0 (and z_1_12_0 z_1_12_1 z_1_12_2 z_1_12_3 z_1_12_4 z_1_12_5)))
(assert
 (= z_0_12_1 (and z_1_12_1 z_1_12_2 z_1_12_3 z_1_12_4 z_1_12_5)))
(assert
 (= z_0_12_2 (and z_1_12_2 z_1_12_3 z_1_12_4 z_1_12_5)))
(assert
 (let (($x243 (and z_1_12_3 z_1_12_4 z_1_12_5)))
 (= z_0_12_3 $x243)))
(assert
 (let (($x243 (and z_1_12_3 z_1_12_4 z_1_12_5)))
 (= z_0_12_4 $x243)))
(assert
 (let (($x243 (and z_1_12_3 z_1_12_4 z_1_12_5)))
 (= z_0_12_5 $x243)))
(assert
 (let (($x258 (and z_1_13_0 z_1_13_1 z_1_13_2 z_1_13_3 z_1_13_4 z_1_13_5 z_1_13_6 z_1_13_7)))
 (= z_0_13_0 $x258)))
(assert
 (let (($x261 (and z_1_13_1 z_1_13_2 z_1_13_3 z_1_13_4 z_1_13_5 z_1_13_6 z_1_13_7)))
 (= z_0_13_1 $x261)))
(assert
 (= z_0_13_2 (and z_1_13_2 z_1_13_3 z_1_13_4 z_1_13_5 z_1_13_6 z_1_13_7)))
(assert
 (= z_0_13_3 (and z_1_13_3 z_1_13_4 z_1_13_5 z_1_13_6 z_1_13_7)))
(assert
 (let (($x270 (and z_1_13_4 z_1_13_5 z_1_13_6 z_1_13_7)))
 (= z_0_13_4 $x270)))
(assert
 (let (($x270 (and z_1_13_4 z_1_13_5 z_1_13_6 z_1_13_7)))
 (= z_0_13_5 $x270)))
(assert
 (let (($x270 (and z_1_13_4 z_1_13_5 z_1_13_6 z_1_13_7)))
 (= z_0_13_6 $x270)))
(assert
 (let (($x270 (and z_1_13_4 z_1_13_5 z_1_13_6 z_1_13_7)))
 (= z_0_13_7 $x270)))
(assert
 (= z_0_14_0 (and z_1_14_0 z_1_14_1 z_1_14_2 z_1_14_3)))
(assert
 (= z_0_14_1 (and z_1_14_1 z_1_14_2 z_1_14_3)))
(assert
 (let (($x289 (and z_1_14_2 z_1_14_3)))
 (= z_0_14_2 $x289)))
(assert
 (let (($x289 (and z_1_14_2 z_1_14_3)))
 (= z_0_14_3 $x289)))
(assert
 (= z_0_15_0 (and z_1_15_0 z_1_15_1 z_1_15_2 z_1_15_3 z_1_15_4)))
(assert
 (= z_0_15_1 (and z_1_15_1 z_1_15_2 z_1_15_3 z_1_15_4)))
(assert
 (let (($x305 (and z_1_15_2 z_1_15_3 z_1_15_4)))
 (= z_0_15_2 $x305)))
(assert
 (let (($x305 (and z_1_15_2 z_1_15_3 z_1_15_4)))
 (= z_0_15_3 $x305)))
(assert
 (let (($x305 (and z_1_15_2 z_1_15_3 z_1_15_4)))
 (= z_0_15_4 $x305)))
(assert
 (= z_0_16_0 (and z_1_16_0 z_1_16_1 z_1_16_2 z_1_16_3 z_1_16_4)))
(assert
 (= z_0_16_1 (and z_1_16_1 z_1_16_2 z_1_16_3 z_1_16_4)))
(assert
 (= z_0_16_2 (and z_1_16_2 z_1_16_3 z_1_16_4)))
(assert
 (let (($x326 (and z_1_16_3 z_1_16_4)))
 (= z_0_16_3 $x326)))
(assert
 (let (($x326 (and z_1_16_3 z_1_16_4)))
 (= z_0_16_4 $x326)))
(assert
 (= z_0_17_0 (and z_1_17_0 z_1_17_1 z_1_17_2 z_1_17_3 z_1_17_4)))
(assert
 (= z_0_17_1 (and z_1_17_1 z_1_17_2 z_1_17_3 z_1_17_4)))
(assert
 (let (($x342 (and z_1_17_2 z_1_17_3 z_1_17_4)))
 (= z_0_17_2 $x342)))
(assert
 (let (($x342 (and z_1_17_2 z_1_17_3 z_1_17_4)))
 (= z_0_17_3 $x342)))
(assert
 (let (($x342 (and z_1_17_2 z_1_17_3 z_1_17_4)))
 (= z_0_17_4 $x342)))
(assert
 (= z_0_18_0 (and z_1_18_0 z_1_18_1 z_1_18_2 z_1_18_3)))
(assert
 (= z_0_18_1 (and z_1_18_1 z_1_18_2 z_1_18_3)))
(assert
 (= z_0_18_2 (and z_1_18_2 z_1_18_3)))
(assert
 (= z_0_18_3 (and z_1_18_3)))
(assert
 (= z_0_19_0 (and z_1_19_0 z_1_19_1 z_1_19_2 z_1_19_3 z_1_19_4)))
(assert
 (= z_0_19_1 (and z_1_19_1 z_1_19_2 z_1_19_3 z_1_19_4)))
(assert
 (let (($x377 (and z_1_19_2 z_1_19_3 z_1_19_4)))
 (= z_0_19_2 $x377)))
(assert
 (let (($x377 (and z_1_19_2 z_1_19_3 z_1_19_4)))
 (= z_0_19_3 $x377)))
(assert
 (let (($x377 (and z_1_19_2 z_1_19_3 z_1_19_4)))
 (= z_0_19_4 $x377)))
(assert
 (= z_1_0_0 (=> z_2_0_0 z_4_0_0)))
(assert
 (= z_1_0_1 (=> z_2_0_1 z_4_0_1)))
(assert
 (= z_1_0_2 (=> z_2_0_2 z_4_0_2)))
(assert
 (= z_1_1_0 (=> z_2_1_0 z_4_1_0)))
(assert
 (= z_1_1_1 (=> z_2_1_1 z_4_1_1)))
(assert
 (= z_1_1_2 (=> z_2_1_2 z_4_1_2)))
(assert
 (= z_1_1_3 (=> z_2_1_3 z_4_1_3)))
(assert
 (= z_1_1_4 (=> z_2_1_4 z_4_1_4)))
(assert
 (= z_1_1_5 (=> z_2_1_5 z_4_1_5)))
(assert
 (= z_1_2_0 (=> z_2_2_0 z_4_2_0)))
(assert
 (= z_1_2_1 (=> z_2_2_1 z_4_2_1)))
(assert
 (= z_1_2_2 (=> z_2_2_2 z_4_2_2)))
(assert
 (= z_1_2_3 (=> z_2_2_3 z_4_2_3)))
(assert
 (= z_1_3_0 (=> z_2_3_0 z_4_3_0)))
(assert
 (= z_1_3_1 (=> z_2_3_1 z_4_3_1)))
(assert
 (= z_1_3_2 (=> z_2_3_2 z_4_3_2)))
(assert
 (= z_1_4_0 (=> z_2_4_0 z_4_4_0)))
(assert
 (= z_1_4_1 (=> z_2_4_1 z_4_4_1)))
(assert
 (= z_1_4_2 (=> z_2_4_2 z_4_4_2)))
(assert
 (= z_1_4_3 (=> z_2_4_3 z_4_4_3)))
(assert
 (= z_1_4_4 (=> z_2_4_4 z_4_4_4)))
(assert
 (= z_1_4_5 (=> z_2_4_5 z_4_4_5)))
(assert
 (= z_1_5_0 (=> z_2_5_0 z_4_5_0)))
(assert
 (= z_1_5_1 (=> z_2_5_1 z_4_5_1)))
(assert
 (= z_1_5_2 (=> z_2_5_2 z_4_5_2)))
(assert
 (= z_1_5_3 (=> z_2_5_3 z_4_5_3)))
(assert
 (= z_1_6_0 (=> z_2_6_0 z_4_6_0)))
(assert
 (= z_1_6_1 (=> z_2_6_1 z_4_6_1)))
(assert
 (= z_1_6_2 (=> z_2_6_2 z_4_6_2)))
(assert
 (= z_1_7_0 (=> z_2_7_0 z_4_7_0)))
(assert
 (= z_1_7_1 (=> z_2_7_1 z_4_7_1)))
(assert
 (= z_1_7_2 (=> z_2_7_2 z_4_7_2)))
(assert
 (= z_1_7_3 (=> z_2_7_3 z_4_7_3)))
(assert
 (= z_1_7_4 (=> z_2_7_4 z_4_7_4)))
(assert
 (= z_1_7_5 (=> z_2_7_5 z_4_7_5)))
(assert
 (= z_1_7_6 (=> z_2_7_6 z_4_7_6)))
(assert
 (= z_1_8_0 (=> z_2_8_0 z_4_8_0)))
(assert
 (= z_1_8_1 (=> z_2_8_1 z_4_8_1)))
(assert
 (= z_1_8_2 (=> z_2_8_2 z_4_8_2)))
(assert
 (= z_1_9_0 (=> z_2_9_0 z_4_9_0)))
(assert
 (= z_1_9_1 (=> z_2_9_1 z_4_9_1)))
(assert
 (= z_1_9_2 (=> z_2_9_2 z_4_9_2)))
(assert
 (= z_1_10_0 (=> z_2_10_0 z_4_10_0)))
(assert
 (= z_1_10_1 (=> z_2_10_1 z_4_10_1)))
(assert
 (= z_1_10_2 (=> z_2_10_2 z_4_10_2)))
(assert
 (= z_1_10_3 (=> z_2_10_3 z_4_10_3)))
(assert
 (= z_1_10_4 (=> z_2_10_4 z_4_10_4)))
(assert
 (= z_1_10_5 (=> z_2_10_5 z_4_10_5)))
(assert
 (= z_1_11_0 (=> z_2_11_0 z_4_11_0)))
(assert
 (= z_1_11_1 (=> z_2_11_1 z_4_11_1)))
(assert
 (= z_1_11_2 (=> z_2_11_2 z_4_11_2)))
(assert
 (= z_1_11_3 (=> z_2_11_3 z_4_11_3)))
(assert
 (= z_1_11_4 (=> z_2_11_4 z_4_11_4)))
(assert
 (= z_1_11_5 (=> z_2_11_5 z_4_11_5)))
(assert
 (= z_1_12_0 (=> z_2_12_0 z_4_12_0)))
(assert
 (= z_1_12_1 (=> z_2_12_1 z_4_12_1)))
(assert
 (= z_1_12_2 (=> z_2_12_2 z_4_12_2)))
(assert
 (= z_1_12_3 (=> z_2_12_3 z_4_12_3)))
(assert
 (= z_1_12_4 (=> z_2_12_4 z_4_12_4)))
(assert
 (= z_1_12_5 (=> z_2_12_5 z_4_12_5)))
(assert
 (= z_1_13_0 (=> z_2_13_0 z_4_13_0)))
(assert
 (= z_1_13_1 (=> z_2_13_1 z_4_13_1)))
(assert
 (= z_1_13_2 (=> z_2_13_2 z_4_13_2)))
(assert
 (= z_1_13_3 (=> z_2_13_3 z_4_13_3)))
(assert
 (= z_1_13_4 (=> z_2_13_4 z_4_13_4)))
(assert
 (= z_1_13_5 (=> z_2_13_5 z_4_13_5)))
(assert
 (= z_1_13_6 (=> z_2_13_6 z_4_13_6)))
(assert
 (= z_1_13_7 (=> z_2_13_7 z_4_13_7)))
(assert
 (= z_1_14_0 (=> z_2_14_0 z_4_14_0)))
(assert
 (= z_1_14_1 (=> z_2_14_1 z_4_14_1)))
(assert
 (= z_1_14_2 (=> z_2_14_2 z_4_14_2)))
(assert
 (= z_1_14_3 (=> z_2_14_3 z_4_14_3)))
(assert
 (= z_1_15_0 (=> z_2_15_0 z_4_15_0)))
(assert
 (= z_1_15_1 (=> z_2_15_1 z_4_15_1)))
(assert
 (= z_1_15_2 (=> z_2_15_2 z_4_15_2)))
(assert
 (= z_1_15_3 (=> z_2_15_3 z_4_15_3)))
(assert
 (= z_1_15_4 (=> z_2_15_4 z_4_15_4)))
(assert
 (= z_1_16_0 (=> z_2_16_0 z_4_16_0)))
(assert
 (= z_1_16_1 (=> z_2_16_1 z_4_16_1)))
(assert
 (= z_1_16_2 (=> z_2_16_2 z_4_16_2)))
(assert
 (= z_1_16_3 (=> z_2_16_3 z_4_16_3)))
(assert
 (= z_1_16_4 (=> z_2_16_4 z_4_16_4)))
(assert
 (= z_1_17_0 (=> z_2_17_0 z_4_17_0)))
(assert
 (= z_1_17_1 (=> z_2_17_1 z_4_17_1)))
(assert
 (= z_1_17_2 (=> z_2_17_2 z_4_17_2)))
(assert
 (= z_1_17_3 (=> z_2_17_3 z_4_17_3)))
(assert
 (= z_1_17_4 (=> z_2_17_4 z_4_17_4)))
(assert
 (= z_1_18_0 (=> z_2_18_0 z_4_18_0)))
(assert
 (= z_1_18_1 (=> z_2_18_1 z_4_18_1)))
(assert
 (= z_1_18_2 (=> z_2_18_2 z_4_18_2)))
(assert
 (= z_1_18_3 (=> z_2_18_3 z_4_18_3)))
(assert
 (= z_1_19_0 (=> z_2_19_0 z_4_19_0)))
(assert
 (= z_1_19_1 (=> z_2_19_1 z_4_19_1)))
(assert
 (= z_1_19_2 (=> z_2_19_2 z_4_19_2)))
(assert
 (= z_1_19_3 (=> z_2_19_3 z_4_19_3)))
(assert
 (= z_1_19_4 (=> z_2_19_4 z_4_19_4)))
(assert
 z_2_0_0)
(assert
 (not z_2_0_1))
(assert
 z_2_0_2)
(assert
 z_2_1_0)
(assert
 (not z_2_1_1))
(assert
 (not z_2_1_2))
(assert
 z_2_1_3)
(assert
 z_2_1_4)
(assert
 (not z_2_1_5))
(assert
 (not z_2_2_0))
(assert
 z_2_2_1)
(assert
 z_2_2_2)
(assert
 (not z_2_2_3))
(assert
 (not z_2_3_0))
(assert
 z_2_3_1)
(assert
 (not z_2_3_2))
(assert
 (not z_2_4_0))
(assert
 z_2_4_1)
(assert
 (not z_2_4_2))
(assert
 (not z_2_4_3))
(assert
 z_2_4_4)
(assert
 (not z_2_4_5))
(assert
 (not z_2_5_0))
(assert
 (not z_2_5_1))
(assert
 z_2_5_2)
(assert
 (not z_2_5_3))
(assert
 z_2_6_0)
(assert
 (not z_2_6_1))
(assert
 z_2_6_2)
(assert
 (not z_2_7_0))
(assert
 (not z_2_7_1))
(assert
 z_2_7_2)
(assert
 (not z_2_7_3))
(assert
 z_2_7_4)
(assert
 (not z_2_7_5))
(assert
 (not z_2_7_6))
(assert
 (not z_2_8_0))
(assert
 (not z_2_8_1))
(assert
 z_2_8_2)
(assert
 (not z_2_9_0))
(assert
 (not z_2_9_1))
(assert
 z_2_9_2)
(assert
 z_2_10_0)
(assert
 z_2_10_1)
(assert
 z_2_10_2)
(assert
 z_2_10_3)
(assert
 z_2_10_4)
(assert
 (not z_2_10_5))
(assert
 z_2_11_0)
(assert
 (not z_2_11_1))
(assert
 z_2_11_2)
(assert
 (not z_2_11_3))
(assert
 (not z_2_11_4))
(assert
 z_2_11_5)
(assert
 (not z_2_12_0))
(assert
 z_2_12_1)
(assert
 z_2_12_2)
(assert
 (not z_2_12_3))
(assert
 (not z_2_12_4))
(assert
 z_2_12_5)
(assert
 (not z_2_13_0))
(assert
 (not z_2_13_1))
(assert
 z_2_13_2)
(assert
 (not z_2_13_3))
(assert
 (not z_2_13_4))
(assert
 z_2_13_5)
(assert
 (not z_2_13_6))
(assert
 z_2_13_7)
(assert
 z_2_14_0)
(assert
 z_2_14_1)
(assert
 z_2_14_2)
(assert
 (not z_2_14_3))
(assert
 (not z_2_15_0))
(assert
 (not z_2_15_1))
(assert
 z_2_15_2)
(assert
 (not z_2_15_3))
(assert
 z_2_15_4)
(assert
 z_2_16_0)
(assert
 z_2_16_1)
(assert
 (not z_2_16_2))
(assert
 z_2_16_3)
(assert
 (not z_2_16_4))
(assert
 (not z_2_17_0))
(assert
 z_2_17_1)
(assert
 z_2_17_2)
(assert
 (not z_2_17_3))
(assert
 (not z_2_17_4))
(assert
 (not z_2_18_0))
(assert
 z_2_18_1)
(assert
 (not z_2_18_2))
(assert
 z_2_18_3)
(assert
 z_2_19_0)
(assert
 (not z_2_19_1))
(assert
 z_2_19_2)
(assert
 z_2_19_3)
(assert
 (not z_2_19_4))
(assert
 (let (($x3922 (not x_4_q)))
 (let (($x3921 (not x_4_p)))
 (let (($x3923 (or $x3921 $x3922)))
 (and $x3923)))))
(assert
 (and true true))
(assert
 (=> x_4_p z_4_0_0))
(assert
 (=> x_4_p z_4_0_1))
(assert
 (=> x_4_p z_4_0_2))
(assert
 (=> x_4_p z_4_1_0))
(assert
 (=> x_4_p z_4_1_1))
(assert
 (=> x_4_p z_4_1_2))
(assert
 (=> x_4_p z_4_1_3))
(assert
 (=> x_4_p z_4_1_4))
(assert
 (=> x_4_p z_4_1_5))
(assert
 (=> x_4_p z_4_2_0))
(assert
 (=> x_4_p z_4_2_1))
(assert
 (=> x_4_p z_4_2_2))
(assert
 (=> x_4_p z_4_2_3))
(assert
 (let (($x3969 (not z_4_3_0)))
 (=> x_4_p $x3969)))
(assert
 (=> x_4_p z_4_3_1))
(assert
 (=> x_4_p z_4_3_2))
(assert
 (=> x_4_p z_4_4_0))
(assert
 (=> x_4_p z_4_4_1))
(assert
 (=> x_4_p z_4_4_2))
(assert
 (=> x_4_p z_4_4_3))
(assert
 (=> x_4_p z_4_4_4))
(assert
 (=> x_4_p z_4_4_5))
(assert
 (let (($x3988 (not z_4_5_0)))
 (=> x_4_p $x3988)))
(assert
 (let (($x3991 (not z_4_5_1)))
 (=> x_4_p $x3991)))
(assert
 (=> x_4_p z_4_5_2))
(assert
 (=> x_4_p z_4_5_3))
(assert
 (=> x_4_p z_4_6_0))
(assert
 (=> x_4_p z_4_6_1))
(assert
 (=> x_4_p z_4_6_2))
(assert
 (=> x_4_p z_4_7_0))
(assert
 (let (($x4006 (not z_4_7_1)))
 (=> x_4_p $x4006)))
(assert
 (=> x_4_p z_4_7_2))
(assert
 (=> x_4_p z_4_7_3))
(assert
 (=> x_4_p z_4_7_4))
(assert
 (=> x_4_p z_4_7_5))
(assert
 (=> x_4_p z_4_7_6))
(assert
 (=> x_4_p z_4_8_0))
(assert
 (=> x_4_p z_4_8_1))
(assert
 (=> x_4_p z_4_8_2))
(assert
 (=> x_4_p z_4_9_0))
(assert
 (let (($x4027 (not z_4_9_1)))
 (=> x_4_p $x4027)))
(assert
 (=> x_4_p z_4_9_2))
(assert
 (let (($x4032 (not z_4_10_0)))
 (=> x_4_p $x4032)))
(assert
 (=> x_4_p z_4_10_1))
(assert
 (=> x_4_p z_4_10_2))
(assert
 (=> x_4_p z_4_10_3))
(assert
 (=> x_4_p z_4_10_4))
(assert
 (let (($x4043 (not z_4_10_5)))
 (=> x_4_p $x4043)))
(assert
 (=> x_4_p z_4_11_0))
(assert
 (=> x_4_p z_4_11_1))
(assert
 (=> x_4_p z_4_11_2))
(assert
 (let (($x4052 (not z_4_11_3)))
 (=> x_4_p $x4052)))
(assert
 (let (($x4055 (not z_4_11_4)))
 (=> x_4_p $x4055)))
(assert
 (let (($x4058 (not z_4_11_5)))
 (=> x_4_p $x4058)))
(assert
 (let (($x4061 (not z_4_12_0)))
 (=> x_4_p $x4061)))
(assert
 (=> x_4_p z_4_12_1))
(assert
 (let (($x4066 (not z_4_12_2)))
 (=> x_4_p $x4066)))
(assert
 (let (($x4069 (not z_4_12_3)))
 (=> x_4_p $x4069)))
(assert
 (let (($x4072 (not z_4_12_4)))
 (=> x_4_p $x4072)))
(assert
 (=> x_4_p z_4_12_5))
(assert
 (let (($x4077 (not z_4_13_0)))
 (=> x_4_p $x4077)))
(assert
 (let (($x4080 (not z_4_13_1)))
 (=> x_4_p $x4080)))
(assert
 (=> x_4_p z_4_13_2))
(assert
 (let (($x4085 (not z_4_13_3)))
 (=> x_4_p $x4085)))
(assert
 (let (($x4088 (not z_4_13_4)))
 (=> x_4_p $x4088)))
(assert
 (=> x_4_p z_4_13_5))
(assert
 (let (($x4093 (not z_4_13_6)))
 (=> x_4_p $x4093)))
(assert
 (let (($x4096 (not z_4_13_7)))
 (=> x_4_p $x4096)))
(assert
 (let (($x4099 (not z_4_14_0)))
 (=> x_4_p $x4099)))
(assert
 (let (($x4102 (not z_4_14_1)))
 (=> x_4_p $x4102)))
(assert
 (let (($x4105 (not z_4_14_2)))
 (=> x_4_p $x4105)))
(assert
 (let (($x4108 (not z_4_14_3)))
 (=> x_4_p $x4108)))
(assert
 (=> x_4_p z_4_15_0))
(assert
 (=> x_4_p z_4_15_1))
(assert
 (let (($x4115 (not z_4_15_2)))
 (=> x_4_p $x4115)))
(assert
 (let (($x4118 (not z_4_15_3)))
 (=> x_4_p $x4118)))
(assert
 (=> x_4_p z_4_15_4))
(assert
 (=> x_4_p z_4_16_0))
(assert
 (=> x_4_p z_4_16_1))
(assert
 (let (($x4127 (not z_4_16_2)))
 (=> x_4_p $x4127)))
(assert
 (let (($x4130 (not z_4_16_3)))
 (=> x_4_p $x4130)))
(assert
 (=> x_4_p z_4_16_4))
(assert
 (=> x_4_p z_4_17_0))
(assert
 (let (($x4137 (not z_4_17_1)))
 (=> x_4_p $x4137)))
(assert
 (let (($x4140 (not z_4_17_2)))
 (=> x_4_p $x4140)))
(assert
 (=> x_4_p z_4_17_3))
(assert
 (let (($x4145 (not z_4_17_4)))
 (=> x_4_p $x4145)))
(assert
 (let (($x4148 (not z_4_18_0)))
 (=> x_4_p $x4148)))
(assert
 (let (($x4151 (not z_4_18_1)))
 (=> x_4_p $x4151)))
(assert
 (let (($x4154 (not z_4_18_2)))
 (=> x_4_p $x4154)))
(assert
 (=> x_4_p z_4_18_3))
(assert
 (=> x_4_p z_4_19_0))
(assert
 (let (($x4161 (not z_4_19_1)))
 (=> x_4_p $x4161)))
(assert
 (let (($x4164 (not z_4_19_2)))
 (=> x_4_p $x4164)))
(assert
 (=> x_4_p z_4_19_3))
(assert
 (=> x_4_p z_4_19_4))
(assert
 (=> x_4_q z_4_0_0))
(assert
 (let (($x4173 (not z_4_0_1)))
 (=> x_4_q $x4173)))
(assert
 (=> x_4_q z_4_0_2))
(assert
 (=> x_4_q z_4_1_0))
(assert
 (let (($x4180 (not z_4_1_1)))
 (=> x_4_q $x4180)))
(assert
 (let (($x4183 (not z_4_1_2)))
 (=> x_4_q $x4183)))
(assert
 (=> x_4_q z_4_1_3))
(assert
 (=> x_4_q z_4_1_4))
(assert
 (let (($x4190 (not z_4_1_5)))
 (=> x_4_q $x4190)))
(assert
 (let (($x4193 (not z_4_2_0)))
 (=> x_4_q $x4193)))
(assert
 (=> x_4_q z_4_2_1))
(assert
 (=> x_4_q z_4_2_2))
(assert
 (let (($x4200 (not z_4_2_3)))
 (=> x_4_q $x4200)))
(assert
 (let (($x3969 (not z_4_3_0)))
 (=> x_4_q $x3969)))
(assert
 (=> x_4_q z_4_3_1))
(assert
 (let (($x4207 (not z_4_3_2)))
 (=> x_4_q $x4207)))
(assert
 (let (($x4210 (not z_4_4_0)))
 (=> x_4_q $x4210)))
(assert
 (=> x_4_q z_4_4_1))
(assert
 (let (($x4215 (not z_4_4_2)))
 (=> x_4_q $x4215)))
(assert
 (let (($x4218 (not z_4_4_3)))
 (=> x_4_q $x4218)))
(assert
 (=> x_4_q z_4_4_4))
(assert
 (let (($x4223 (not z_4_4_5)))
 (=> x_4_q $x4223)))
(assert
 (let (($x3988 (not z_4_5_0)))
 (=> x_4_q $x3988)))
(assert
 (let (($x3991 (not z_4_5_1)))
 (=> x_4_q $x3991)))
(assert
 (=> x_4_q z_4_5_2))
(assert
 (let (($x4232 (not z_4_5_3)))
 (=> x_4_q $x4232)))
(assert
 (=> x_4_q z_4_6_0))
(assert
 (let (($x4237 (not z_4_6_1)))
 (=> x_4_q $x4237)))
(assert
 (=> x_4_q z_4_6_2))
(assert
 (let (($x4242 (not z_4_7_0)))
 (=> x_4_q $x4242)))
(assert
 (let (($x4006 (not z_4_7_1)))
 (=> x_4_q $x4006)))
(assert
 (=> x_4_q z_4_7_2))
(assert
 (let (($x4249 (not z_4_7_3)))
 (=> x_4_q $x4249)))
(assert
 (=> x_4_q z_4_7_4))
(assert
 (let (($x4254 (not z_4_7_5)))
 (=> x_4_q $x4254)))
(assert
 (let (($x4257 (not z_4_7_6)))
 (=> x_4_q $x4257)))
(assert
 (let (($x4260 (not z_4_8_0)))
 (=> x_4_q $x4260)))
(assert
 (let (($x4263 (not z_4_8_1)))
 (=> x_4_q $x4263)))
(assert
 (=> x_4_q z_4_8_2))
(assert
 (let (($x4268 (not z_4_9_0)))
 (=> x_4_q $x4268)))
(assert
 (let (($x4027 (not z_4_9_1)))
 (=> x_4_q $x4027)))
(assert
 (=> x_4_q z_4_9_2))
(assert
 (=> x_4_q z_4_10_0))
(assert
 (=> x_4_q z_4_10_1))
(assert
 (=> x_4_q z_4_10_2))
(assert
 (=> x_4_q z_4_10_3))
(assert
 (=> x_4_q z_4_10_4))
(assert
 (let (($x4043 (not z_4_10_5)))
 (=> x_4_q $x4043)))
(assert
 (=> x_4_q z_4_11_0))
(assert
 (let (($x4289 (not z_4_11_1)))
 (=> x_4_q $x4289)))
(assert
 (=> x_4_q z_4_11_2))
(assert
 (let (($x4052 (not z_4_11_3)))
 (=> x_4_q $x4052)))
(assert
 (let (($x4055 (not z_4_11_4)))
 (=> x_4_q $x4055)))
(assert
 (=> x_4_q z_4_11_5))
(assert
 (let (($x4061 (not z_4_12_0)))
 (=> x_4_q $x4061)))
(assert
 (=> x_4_q z_4_12_1))
(assert
 (=> x_4_q z_4_12_2))
(assert
 (let (($x4069 (not z_4_12_3)))
 (=> x_4_q $x4069)))
(assert
 (let (($x4072 (not z_4_12_4)))
 (=> x_4_q $x4072)))
(assert
 (=> x_4_q z_4_12_5))
(assert
 (let (($x4077 (not z_4_13_0)))
 (=> x_4_q $x4077)))
(assert
 (let (($x4080 (not z_4_13_1)))
 (=> x_4_q $x4080)))
(assert
 (=> x_4_q z_4_13_2))
(assert
 (let (($x4085 (not z_4_13_3)))
 (=> x_4_q $x4085)))
(assert
 (let (($x4088 (not z_4_13_4)))
 (=> x_4_q $x4088)))
(assert
 (=> x_4_q z_4_13_5))
(assert
 (let (($x4093 (not z_4_13_6)))
 (=> x_4_q $x4093)))
(assert
 (=> x_4_q z_4_13_7))
(assert
 (=> x_4_q z_4_14_0))
(assert
 (=> x_4_q z_4_14_1))
(assert
 (=> x_4_q z_4_14_2))
(assert
 (let (($x4108 (not z_4_14_3)))
 (=> x_4_q $x4108)))
(assert
 (let (($x4336 (not z_4_15_0)))
 (=> x_4_q $x4336)))
(assert
 (let (($x4339 (not z_4_15_1)))
 (=> x_4_q $x4339)))
(assert
 (=> x_4_q z_4_15_2))
(assert
 (let (($x4118 (not z_4_15_3)))
 (=> x_4_q $x4118)))
(assert
 (=> x_4_q z_4_15_4))
(assert
 (=> x_4_q z_4_16_0))
(assert
 (=> x_4_q z_4_16_1))
(assert
 (let (($x4127 (not z_4_16_2)))
 (=> x_4_q $x4127)))
(assert
 (=> x_4_q z_4_16_3))
(assert
 (let (($x4356 (not z_4_16_4)))
 (=> x_4_q $x4356)))
(assert
 (let (($x4359 (not z_4_17_0)))
 (=> x_4_q $x4359)))
(assert
 (=> x_4_q z_4_17_1))
(assert
 (=> x_4_q z_4_17_2))
(assert
 (let (($x4366 (not z_4_17_3)))
 (=> x_4_q $x4366)))
(assert
 (let (($x4145 (not z_4_17_4)))
 (=> x_4_q $x4145)))
(assert
 (let (($x4148 (not z_4_18_0)))
 (=> x_4_q $x4148)))
(assert
 (=> x_4_q z_4_18_1))
(assert
 (let (($x4154 (not z_4_18_2)))
 (=> x_4_q $x4154)))
(assert
 (=> x_4_q z_4_18_3))
(assert
 (=> x_4_q z_4_19_0))
(assert
 (let (($x4161 (not z_4_19_1)))
 (=> x_4_q $x4161)))
(assert
 (=> x_4_q z_4_19_2))
(assert
 (=> x_4_q z_4_19_3))
(assert
 (let (($x4387 (not z_4_19_4)))
 (=> x_4_q $x4387)))
(assert
 (or x_4_p x_4_q))
(assert
 (let (($x3941 (not x_4_->)))
 (let (($x3939 (not x_4_U)))
 (let (($x3937 (not x_4_v)))
 (let (($x3935 (not x_4_&)))
 (let (($x3933 (not x_4_X)))
 (let (($x3931 (not x_4_!)))
 (let (($x3929 (not x_4_F)))
 (let (($x3927 (not x_4_G)))
 (and $x3927 $x3929 $x3931 $x3933 $x3935 $x3937 $x3939 $x3941))))))))))
(check-sat)

